50

100 48 223
97 2 442
97 23 215
95 35 456
93 4 438
87 9 333
87 17 358
86 1 359
82 3 549
82 38 563
78 8 291
76 23 294
76 20 211
75 14 508
74 31 287
71 30 320
68 2 403
66 14 489
65 29 558
63 25 346
59 11 421
59 26 558
58 25 536
58 9 512
57 22 580
52 7 287
51 4 456
46 10 511
46 5 444
46 12 346
43 22 358
42 6 219
42 14 566
41 21 322
41 12 553
41 21 404
38 16 220
37 15 472
36 18 471
36 5 294
32 14 514
32 14 267
31 2 537
30 15 311
27 1 297
25 13 366
22 1 539
22 0 237
22 8 239
21 9 591
